10	6	3.9
2 2 4 9 5 3 5 1 3 2 3 3 6 4 1 5 4
2 5 1 9 2 8 4 1 5 8 6 3 4 1 8 2 2 4 4 6 4
2 3 1 4 2 5 3 5 6 1 2 2 9 3 4 4 5 5 8 6 5
2 5 1 9 2 3 3 7 4 5 6 6 5 1 5 3 8 4 9 5 6 6 2
2 3 2 9 4 3 6 5 4 1 8 2 8 4 7 5 1
2 5 1 1 2 5 4 1 5 9 6 8 2 2 9 3 8
2 6 1 8 2 4 3 1 4 7 5 9 6 8 6 1 4 2 7 3 9 4 8 5 7 6 1
2 1 6 2 4 1 8 2 6 3 4 6 3
2 5 1 6 2 1 3 4 5 9 6 4 2 1 2 3 2
2 1 5 8 4 1 9 4 8 5 7 6 2
